instances/shortest_path/discrete/shortest_path_4_11.lp
\ Model nohadani_4_11
\ LP format - for model browsing. Use MPS format to capture full model detail.
\ Signature: 0x26b3cf7f3313a25f
Minimize
  45.60701700396552 y[0,2] + 68.00735254367721 y[0,3]
   + 46.52956049652737 y[1,2] + 66.64833081180653 y[1,3]
   + 45.60701700396552 y[2,0] + 46.52956049652737 y[2,1]
   + 27.29468812791236 y[2,3] + 68.00735254367721 y[3,0]
   + 66.64833081180653 y[3,1] + 27.29468812791236 y[3,2] + x[0,2] + x[0,3]
   + x[1,2] + x[1,3] + x[2,0] + x[2,1] + x[2,3] + x[3,0] + x[3,1] + x[3,2]
   + 4.560701700396552 r[0,2] + 6.800735254367722 r[0,3]
   + 4.652956049652737 r[1,2] + 6.664833081180653 r[1,3]
   + 4.560701700396552 r[2,0] + 4.652956049652737 r[2,1]
   + 2.729468812791236 r[2,3] + 6.800735254367722 r[3,0]
   + 6.664833081180653 r[3,1] + 2.729468812791236 r[3,2]
Subject To
 flow_cons_inner_nodes[2]: y[0,2] + y[1,2] - y[2,0] - y[2,1] - y[2,3]
   + y[3,2] = 0
 flow_cons_inner_nodes[3]: y[0,3] + y[1,3] + y[2,3] - y[3,0] - y[3,1]
   - y[3,2] = 0
 flow_cons_source: y[0,2] + y[0,3] - y[2,0] - y[3,0] = 1
 flow_cons_target: - y[1,2] - y[1,3] + y[2,1] + y[3,1] = 1
 primal_lower: 5.290379317813933 x[0,2] + 1.58247724315458 x[0,3]
   + 6.603566437590003 x[1,2] + 6.674751245039451 x[1,3]
   + 3.657388541925305 x[2,0] + 5.384555135151447 x[2,1]
   + 7.33230087296617 x[2,3] + 8.012680049703263 x[3,0]
   + 0.4300573425436922 x[3,1] + 6.923891802276122 x[3,2] + 61 u[0,2]
   + 65 u[0,3] + 31 u[1,2] + 84 u[1,3] + 53 u[2,0] + 75 u[2,1] + 30 u[2,3]
   + 33 u[3,0] + 78 u[3,1] + 27 u[3,2] <= 84
 mccormick1[0,2]: - u[0,2] + r[0,2] <= 0
 mccormick1[0,3]: - u[0,3] + r[0,3] <= 0
 mccormick1[1,2]: - u[1,2] + r[1,2] <= 0
 mccormick1[1,3]: - u[1,3] + r[1,3] <= 0
 mccormick1[2,0]: - u[2,0] + r[2,0] <= 0
 mccormick1[2,1]: - u[2,1] + r[2,1] <= 0
 mccormick1[2,3]: - u[2,3] + r[2,3] <= 0
 mccormick1[3,0]: - u[3,0] + r[3,0] <= 0
 mccormick1[3,1]: - u[3,1] + r[3,1] <= 0
 mccormick1[3,2]: - u[3,2] + r[3,2] <= 0
 mccormick2[0,2]: - y[0,2] + r[0,2] <= 0
 mccormick2[0,3]: - y[0,3] + r[0,3] <= 0
 mccormick2[1,2]: - y[1,2] + r[1,2] <= 0
 mccormick2[1,3]: - y[1,3] + r[1,3] <= 0
 mccormick2[2,0]: - y[2,0] + r[2,0] <= 0
 mccormick2[2,1]: - y[2,1] + r[2,1] <= 0
 mccormick2[2,3]: - y[2,3] + r[2,3] <= 0
 mccormick2[3,0]: - y[3,0] + r[3,0] <= 0
 mccormick2[3,1]: - y[3,1] + r[3,1] <= 0
 mccormick2[3,2]: - y[3,2] + r[3,2] <= 0
 mccormick3[0,2]: - y[0,2] - u[0,2] + r[0,2] >= -1
 mccormick3[0,3]: - y[0,3] - u[0,3] + r[0,3] >= -1
 mccormick3[1,2]: - y[1,2] - u[1,2] + r[1,2] >= -1
 mccormick3[1,3]: - y[1,3] - u[1,3] + r[1,3] >= -1
 mccormick3[2,0]: - y[2,0] - u[2,0] + r[2,0] >= -1
 mccormick3[2,1]: - y[2,1] - u[2,1] + r[2,1] >= -1
 mccormick3[2,3]: - y[2,3] - u[2,3] + r[2,3] >= -1
 mccormick3[3,0]: - y[3,0] - u[3,0] + r[3,0] >= -1
 mccormick3[3,1]: - y[3,1] - u[3,1] + r[3,1] >= -1
 mccormick3[3,2]: - y[3,2] - u[3,2] + r[3,2] >= -1
Bounds
Binaries
 y[0,2] y[0,3] y[1,2] y[1,3] y[2,0] y[2,1] y[2,3] y[3,0] y[3,1] y[3,2]
 x[0,2] x[0,3] x[1,2] x[1,3] x[2,0] x[2,1] x[2,3] x[3,0] x[3,1] x[3,2]
 u[0,2] u[0,3] u[1,2] u[1,3] u[2,0] u[2,1] u[2,3] u[3,0] u[3,1] u[3,2]
 r[0,2] r[0,3] r[1,2] r[1,3] r[2,0] r[2,1] r[2,3] r[3,0] r[3,1] r[3,2]
End
