instances/shortest_path/discrete/shortest_path_4_11.kp
38908
84

[5.290379317813933 1.5824772431545802 6.603566437590003 6.674751245039451 3.6573885419253047 5.384555135151447 7.33230087296617 8.012680049703263 0.43005734254369216 6.923891802276122]

[61 65 31 84 53 75 30 33 78 27]
